50
496496   467277
-962810   -392192
-429299   202341
-883966   921363
291802   468516
-552107   352833
751568   714175
888514   -271423
107022   -365724
708495   602244
-932055   -262135
846858   530920
-91367   298040
-485512   -933580
-768169   -214238
254821   591721
-836031   117371
71233   -832199
-876204   -266644
-424944   -200510
-557565   -788632
-190922   -341182
-894272   -248631
-494289   174383
499309   -824682
-599051   -54086
247246   -957768
-852592   89712
109463   947762
-478998   883079
-772295   34440
890431   -85680
-557571   609323
733480   335207
-113174   843928
-84177   -32735
445964   179706
903611   -467479
-984997   -361522
86570   -615590
19768   -465648
-629760   -746884
-195721   -133142
-936979   -473570
363325   540501
-194954   580688
360071   -649610
913019   -326468
-445920   -322257
358723   141675
